
Gurobi 10.0.1 (win64) logging started Tue Aug 29 02:53:19 2023

Set parameter LogFile to value "results//log/URT_12_deadline.log"
Gurobi Optimizer version 10.0.1 build v10.0.1rc0 (win64)

CPU model: AMD Ryzen 7 3700X 8-Core Processor, instruction set [SSE2|AVX|AVX2]
Thread count: 8 physical cores, 16 logical processors, using up to 16 threads

Optimize a model with 492 rows, 331 columns and 1945 nonzeros
Model fingerprint: 0xac0450d4
Model has 1 quadratic constraint
Variable types: 45 continuous, 286 integer (285 binary)
Coefficient statistics:
  Matrix range     [1e+00, 1e+06]
  QMatrix range    [1e+00, 1e+00]
  QLMatrix range   [1e+00, 1e+01]
  Objective range  [1e+00, 1e+00]
  Bounds range     [1e+00, 1e+00]
  RHS range        [1e+00, 3e+06]
Presolve removed 68 rows and 120 columns
Presolve time: 0.00s
Presolved: 440 rows, 226 columns, 1923 nonzeros
Variable types: 60 continuous, 166 integer (165 binary)
Found heuristic solution: objective 160.0000000

Root relaxation: objective 0.000000e+00, 53 iterations, 0.00 seconds (0.00 work units)

    Nodes    |    Current Node    |     Objective Bounds      |     Work
 Expl Unexpl |  Obj  Depth IntInf | Incumbent    BestBd   Gap | It/Node Time

     0     0    0.00000    0    2  160.00000    0.00000   100%     -    0s
H    0     0                      95.0000000    0.00000   100%     -    0s
H    0     0                      94.0000000    0.00000   100%     -    0s
H    0     0                      61.0000000    0.00000   100%     -    0s
     0     0    0.00000    0    6   61.00000    0.00000   100%     -    0s
H    0     0                      55.0000000    0.00000   100%     -    0s
     0     0    0.00000    0    6   55.00000    0.00000   100%     -    0s
     0     0    0.00000    0    7   55.00000    0.00000   100%     -    0s
     0     0    0.00000    0    4   55.00000    0.00000   100%     -    0s
H    0     0                      53.0000000    0.00000   100%     -    0s
     0     0    0.00000    0    9   53.00000    0.00000   100%     -    0s
H    0     0                      48.0000000    0.00000   100%     -    0s
     0     0    0.00000    0   12   48.00000    0.00000   100%     -    0s
     0     0    0.00000    0    9   48.00000    0.00000   100%     -    0s
     0     0    0.00000    0    9   48.00000    0.00000   100%     -    0s
     0     2    0.00000    0    9   48.00000    0.00000   100%     -    0s
H  205   168                      46.0000000    0.00000   100%  12.0    0s
H  263   207                      38.0000000    0.00000   100%  10.3    0s
H  331   241                      37.0000000    0.00000   100%   9.3    0s
H  355   269                      35.0000000    0.00000   100%   8.9    0s
H  513   379                      34.0000000    0.00000   100%   8.9    0s
*22574  2577              59      32.0000000    5.00000  84.4%   2.2    3s
 43489  8529   21.00000   36   35   32.00000    8.00000  75.0%   4.4    5s
H43505  8113                      31.0000000    8.00000  74.2%   4.5    5s
H43505  7707                      29.0000000    8.00000  72.4%   4.5    5s
 71757  5165   16.00000   63    7   29.00000   12.00000  58.6%   6.6   10s
*84780  5108              66      28.0000000   15.00000  46.4%   7.2   10s

Cutting planes:
  Learned: 10
  Gomory: 5
  Cover: 2
  Implied bound: 8
  MIR: 2
  Flow cover: 2
  GUB cover: 1

Explored 120727 nodes (966764 simplex iterations) in 12.76 seconds (3.79 work units)
Thread count was 16 (of 16 available processors)

Solution count 10: 28 28 29 ... 46

Optimal solution found (tolerance 1.00e-04)
Best objective 2.800000000000e+01, best bound 2.800000000000e+01, gap 0.0000%
Warning: constraint name "precedence between 0,2 to 0,0 if x_[j,l,h,z,i]=1" has a space
Warning: constraint name "precedence between 0,2 to 0,0 if x_[j,l,h,z,i]=1" has a space
Warning: default constraint names used to write mps file
